NAME : XML100_3316_13
DIMENSION : 101
NB_CLUSTERS : 4
CLUSTERING_ALG : KMeans
CLUSTERING_PARAMS : k(3)
CLUSTERS
1 0
2 3 7 8 10 11 12 13 15 16 18 19 21 22 23 25 26 27 28 29 32 34 35 39 42 44 45 46 47 48 50 56 57 58 59 62 63 64 65 67 71 73 75 76 81 83 89 91 95 96 98 100
3 2 5 6 17 20 31 33 36 37 38 41 43 51 53 54 55 61 66 68 69 72 74 78 79 82 84 85 86 87 90 92 97
4 1 4 9 14 24 30 40 49 52 60 70 77 80 88 93 94 99
EOF